(declare-const a Real)
(declare-const b Real)
(declare-const c Real)
(assert (= (+ a b c) 3))
(assert (> a 0))
(assert (> b 0))
(assert (> c 0))
(assert (not (<= (+ (* (pow (+ (* 3840 (pow b 3)) (* 5376 (pow a 2) (pow b 3)) (* 5376 (pow b 2) (pow c 3))) -1) (pow (+ (* 3840 c (pow b 3)) (* 5376 (pow a 2) (pow b 3)) (* 5376 (pow b 2) (pow c 3))) 2)) (* -17664 a (pow c 4)) (* -17664 b (pow a 4)) (* -17088 c (pow b 4)) (* -5888 a (pow b 4)) (* -5888 b (pow c 4)) (* -5376 (pow a 2) (pow c 3)) (* -5376 (pow a 3) (pow b 2)) (* -5312 c (pow a 4)) (* 14592 (pow a 3) (pow c 2)) (* 3456 c (pow a 2) (pow b 2)) (* 14336 a b (pow c 3)) (* 16640 a c (pow b 3)) (* 16640 b c (pow a 3))) 0)))
(check-sat)
(get-model)
(exit)